c "750216.clq"
p edge 142 552
e 1 5
e 1 6
e 1 7
e 1 8
e 1 9
e 1 17
e 1 22
e 1 25
e 1 33
e 1 35
e 1 36
e 1 38
e 1 41
e 1 55
e 1 73
e 1 77
e 1 83
e 1 101
e 1 102
e 1 119
e 1 123
e 1 127
e 1 133
e 2 5
e 2 6
e 2 7
e 2 8
e 2 11
e 2 12
e 2 15
e 2 16
e 2 19
e 2 22
e 2 26
e 2 28
e 2 31
e 2 32
e 2 34
e 2 40
e 2 42
e 2 70
e 2 79
e 2 82
e 2 87
e 2 89
e 2 91
e 2 94
e 2 100
e 2 105
e 2 115
e 2 136
e 2 137
e 3 5
e 3 12
e 3 18
e 3 36
e 3 46
e 3 49
e 3 86
e 3 101
e 3 130
e 3 132
e 4 5
e 4 6
e 4 10
e 4 12
e 4 13
e 4 14
e 4 19
e 4 20
e 4 25
e 4 26
e 4 29
e 4 30
e 4 35
e 4 38
e 4 40
e 4 43
e 4 57
e 4 60
e 4 69
e 4 80
e 4 85
e 4 93
e 4 94
e 4 95
e 4 98
e 4 118
e 4 120
e 4 122
e 4 125
e 4 126
e 4 141
e 5 6
e 5 7
e 5 8
e 5 9
e 5 10
e 5 11
e 5 13
e 5 17
e 5 21
e 5 24
e 5 25
e 5 27
e 5 28
e 5 43
e 5 44
e 5 47
e 5 59
e 5 72
e 5 78
e 5 80
e 5 89
e 5 123
e 5 139
e 6 7
e 6 8
e 6 9
e 6 11
e 6 13
e 6 17
e 6 20
e 6 21
e 6 31
e 6 35
e 6 41
e 6 45
e 6 47
e 6 51
e 6 52
e 6 55
e 6 69
e 6 75
e 6 79
e 6 82
e 6 83
e 6 86
e 6 97
e 6 108
e 6 109
e 6 110
e 6 112
e 6 140
e 7 27
e 7 28
e 7 30
e 7 48
e 7 53
e 7 57
e 7 88
e 7 96
e 7 111
e 8 9
e 8 10
e 8 12
e 8 14
e 8 42
e 8 64
e 8 68
e 8 71
e 8 116
e 8 133
e 9 10
e 9 11
e 9 13
e 9 15
e 9 16
e 9 19
e 9 20
e 9 39
e 9 43
e 9 50
e 9 57
e 9 64
e 9 65
e 9 66
e 9 72
e 9 80
e 9 83
e 9 87
e 9 94
e 9 103
e 9 126
e 9 139
e 9 140
e 10 16
e 10 32
e 10 38
e 10 39
e 10 48
e 10 56
e 10 68
e 10 76
e 10 123
e 11 14
e 11 15
e 11 16
e 11 18
e 11 19
e 11 23
e 11 26
e 11 40
e 11 41
e 11 49
e 11 50
e 11 51
e 11 55
e 11 58
e 11 62
e 11 75
e 11 80
e 11 88
e 11 91
e 11 97
e 11 104
e 11 119
e 11 125
e 11 136
e 12 14
e 12 15
e 12 17
e 12 18
e 12 20
e 12 22
e 12 48
e 12 54
e 12 85
e 12 86
e 12 88
e 12 110
e 12 120
e 12 121
e 12 125
e 12 136
e 13 27
e 13 40
e 13 57
e 13 68
e 13 130
e 14 37
e 14 44
e 14 61
e 14 62
e 14 67
e 14 74
e 14 90
e 14 113
e 14 114
e 14 137
e 14 142
e 15 23
e 15 25
e 15 30
e 15 49
e 15 51
e 15 52
e 15 63
e 15 65
e 15 95
e 15 99
e 15 110
e 15 134
e 16 18
e 16 22
e 16 26
e 16 29
e 16 30
e 16 32
e 16 42
e 16 61
e 16 79
e 16 85
e 16 113
e 16 141
e 17 29
e 17 33
e 17 39
e 17 62
e 17 72
e 17 88
e 17 98
e 18 21
e 18 23
e 18 44
e 18 46
e 18 52
e 18 70
e 18 75
e 18 76
e 18 84
e 18 99
e 18 110
e 18 112
e 18 120
e 18 129
e 19 23
e 19 34
e 19 35
e 19 38
e 19 41
e 19 44
e 19 53
e 19 54
e 19 78
e 19 89
e 20 21
e 20 24
e 20 27
e 20 75
e 20 79
e 20 84
e 20 107
e 20 137
e 21 24
e 21 56
e 21 73
e 21 124
e 22 31
e 22 37
e 22 48
e 22 55
e 22 59
e 22 66
e 22 72
e 22 103
e 22 122
e 23 24
e 23 28
e 23 34
e 23 60
e 23 114
e 23 118
e 24 32
e 24 45
e 24 58
e 24 60
e 24 66
e 24 73
e 24 96
e 24 138
e 25 29
e 25 36
e 25 63
e 25 102
e 25 120
e 26 31
e 26 71
e 27 36
e 27 39
e 27 42
e 27 46
e 27 47
e 27 64
e 27 73
e 27 76
e 27 83
e 27 93
e 27 95
e 27 105
e 27 106
e 27 109
e 27 112
e 27 132
e 27 133
e 27 134
e 27 139
e 28 45
e 28 53
e 28 77
e 28 100
e 28 106
e 28 142
e 29 46
e 29 50
e 29 63
e 29 67
e 29 77
e 29 93
e 29 124
e 29 135
e 30 33
e 30 37
e 30 70
e 30 89
e 30 102
e 30 105
e 30 106
e 30 122
e 30 123
e 30 125
e 30 132
e 31 33
e 31 34
e 31 43
e 31 58
e 31 62
e 31 97
e 31 116
e 32 37
e 32 52
e 32 117
e 33 67
e 33 71
e 33 126
e 33 131
e 34 45
e 34 66
e 35 59
e 35 109
e 35 111
e 35 135
e 36 47
e 36 53
e 36 82
e 36 91
e 36 96
e 36 100
e 36 114
e 36 116
e 36 124
e 37 49
e 37 51
e 37 54
e 37 59
e 37 61
e 37 70
e 37 76
e 37 81
e 37 92
e 37 94
e 37 121
e 37 133
e 38 87
e 38 92
e 38 111
e 38 113
e 38 121
e 38 131
e 39 111
e 41 67
e 43 142
e 44 50
e 44 93
e 44 107
e 44 118
e 45 74
e 46 56
e 46 58
e 46 64
e 46 78
e 46 100
e 47 68
e 47 101
e 48 54
e 48 78
e 48 90
e 48 101
e 48 118
e 48 121
e 48 128
e 48 131
e 49 61
e 49 77
e 50 104
e 50 130
e 50 135
e 51 69
e 52 60
e 52 115
e 53 56
e 53 65
e 53 81
e 53 99
e 54 82
e 54 85
e 55 116
e 56 81
e 56 98
e 57 65
e 57 69
e 57 90
e 57 117
e 57 136
e 58 74
e 58 107
e 58 108
e 58 115
e 58 128
e 59 63
e 59 74
e 59 113
e 59 126
e 60 84
e 60 115
e 60 127
e 61 96
e 61 97
e 61 106
e 61 114
e 61 131
e 61 137
e 63 84
e 64 71
e 65 134
e 66 122
e 66 134
e 66 135
e 67 117
e 67 129
e 68 127
e 73 86
e 74 81
e 75 90
e 75 109
e 75 132
e 75 141
e 76 92
e 77 102
e 78 91
e 78 117
e 78 138
e 79 92
e 80 87
e 82 124
e 83 128
e 84 108
e 85 103
e 85 104
e 85 107
e 86 128
e 86 129
e 88 95
e 89 98
e 94 103
e 94 105
e 94 119
e 95 99
e 95 108
e 95 112
e 95 138
e 101 104
e 102 127
e 102 140
e 108 119
e 108 140
e 113 139
e 113 141
e 114 138
e 125 129
e 125 142
e 127 130
